proyfinal/src/viki/013/andrea/andrea-localstore/experimentInOfficeAgust.take6/worker_1/0ee2a03d-b71c-4ddf-b51c-826b924fc678.als.cnf.out
Reading from standard input... Use '--help' for help.
============================[ Problem Statistics ]=============================
|                                                                             |
|  Number of variables:         87638                                         |
|  Number of clauses:          161767                                         |
|  Parse time:                   0.04 s                                       |
|                                                                             |
============================[ Search Statistics ]==============================
| Conflicts |          ORIGINAL         |          LEARNT          | Progress |
|           |    Vars  Clauses Literals |    Limit  Clauses Lit/Cl |          |
===============================================================================
|       100 |   62348   105098   262555 |    38535      100     32 | 28.857 % |
|       250 |   62348   105098   262555 |    42389      250     39 | 28.857 % |
|       475 |   62348   105098   262555 |    46628      475     49 | 28.857 % |
|       812 |   62330   105024   262384 |    51291      811     55 | 28.878 % |
|      1318 |   62329   104980   262294 |    56420     1311     54 | 28.879 % |
|      2077 |   62309   104896   262101 |    62062     1791     52 | 28.902 % |
|      3216 |   62291   104822   261930 |    68268     2929     69 | 28.923 % |
|      4924 |   62291   104822   261930 |    75095     4637     70 | 28.922 % |
|      7486 |   62291   104822   261930 |    82605     7199     72 | 28.922 % |
|     11330 |   51195    71857   181101 |    90865    10065     70 | 41.584 % |
|     17096 |   50760    69922   176498 |    99952    13584     61 | 42.080 % |
===============================================================================
restarts              : 63
conflicts             : 18522          (7524 /sec)
decisions             : 59117          (0.00 % random) (24015 /sec)
propagations          : 24642541       (10010404 /sec)
conflict literals     : 1145991        (48.98 % deleted)
Memory used           : 40.17 MB
CPU time              : 2.46169 s

UNSATISFIABLE
